\ENCODING=ISO-8859-1
\Problem name: IloCplex

Minimize
 obj: - x1 - x2 - x3 - x4 - x5 - x6 - x7 - x8 - x9 - x10 - x11
      - 0.833333333333333 x12 - 0.916666666666667 x13 - 0.75 x14 - 0.75 x15
      - 0.791666666666667 x16 - 0.833333333333333 x17 - 0.666666666666667 x18
      - 0.666666666666667 x19 - 0.583333333333333 x20 - 0.541666666666667 x21
      - 0.5 x22 - 0.5 x23 - 0.458333333333333 x24 - 0.416666666666667 x25
      - 0.416666666666667 x26 - 0.416666666666667 x27 - 0.416666666666667 x28
      - 0.333333333333333 x29 - 0.333333333333333 x30 - 0.291666666666667 x31
      - 0.166666666666667 x32 - 0.333333333333333 x33 - 0.25 x34
      - 0.291666666666667 x35 - 0.25 x36 - 0.208333333333333 x37
      - 0.208333333333333 x38 - 0.25 x39 - 0.166666666666667 x40
      - 0.166666666666667 x41 - 0.166666666666667 x42 - 0.166666666666667 x43
      + 0.0833333333333335 x50 + 1
Subject To
 c1:  99 x1 + 99 x2 + 96 x3 + 96 x4 + 92 x5 + 92 x6 + 91 x7 + 88 x8 + 87 x9
      + 86 x10 + 85 x11 + 76 x12 + 74 x13 + 72 x14 + 69 x15 + 67 x16 + 67 x17
      + 62 x18 + 61 x19 + 56 x20 + 52 x21 + 51 x22 + 49 x23 + 46 x24 + 44 x25
      + 42 x26 + 40 x27 + 40 x28 + 33 x29 + 33 x30 + 30 x31 + 30 x32 + 29 x33
      + 28 x34 + 28 x35 + 27 x36 + 25 x37 + 24 x38 + 23 x39 + 22 x40 + 21 x41
      + 20 x42 + 17 x43 + 14 x44 + 13 x45 + 11 x46 + 10 x47 + 7 x48 + 7 x49
      + 3 x50 <= 100
 c2:  x14 + x37 <= 1
 c3:  x14 + x35 <= 1
 c4:  x15 + x31 <= 1
 c5:  x15 + x33 <= 1
 c6:  x15 + x32 <= 1
 c7:  x12 + x39 <= 1
 c8:  x13 + x39 <= 1
 c9:  x26 + x32 <= 1
 c10: x6 + x48 <= 1
 c11: x7 + x48 <= 1
 c12: x16 + x30 <= 1
 c13: x17 + x30 <= 1
 c14: x12 + x38 <= 1
 c15: x15 + x35 <= 1
 c16: x13 + x37 <= 1
 c17: x16 + x29 <= 1
 c18: x17 + x29 <= 1
 c19: x21 + x27 <= 1
 c20: x14 + x39 <= 1
 c21: x21 + x28 <= 1
 c22: x29 + x39 <= 1
 c23: x26 + x29 <= 1
 c24: x7 + x49 <= 1
 c25: x21 + x35 <= 1
 c26: x16 + x31 <= 1
 c27: x12 + x40 <= 1
 c28: x13 + x38 <= 1
Bounds
 0 <= x1 <= 1
 0 <= x2 <= 1
 0 <= x3 <= 1
 0 <= x4 <= 1
 0 <= x5 <= 1
 0 <= x6 <= 1
 0 <= x7 <= 1
 0 <= x8 <= 1
 0 <= x9 <= 1
 0 <= x10 <= 1
 0 <= x11 <= 1
 0 <= x12 <= 1
 0 <= x13 <= 1
 0 <= x14 <= 1
 0 <= x15 <= 1
 0 <= x16 <= 1
 0 <= x17 <= 1
 0 <= x18 <= 1
 0 <= x19 <= 1
 0 <= x20 <= 1
 0 <= x21 <= 1
 0 <= x22 <= 1
 0 <= x23 <= 1
 0 <= x24 <= 1
 0 <= x25 <= 1
 0 <= x26 <= 1
 0 <= x27 <= 1
 0 <= x28 <= 1
 0 <= x29 <= 1
 0 <= x30 <= 1
 0 <= x31 <= 1
 0 <= x32 <= 1
 0 <= x33 <= 1
 0 <= x34 <= 1
 0 <= x35 <= 1
 0 <= x36 <= 1
 0 <= x37 <= 1
 0 <= x38 <= 1
 0 <= x39 <= 1
 0 <= x40 <= 1
 0 <= x41 <= 1
 0 <= x42 <= 1
 0 <= x43 <= 1
 0 <= x44 <= 1
 0 <= x45 <= 1
 0 <= x46 <= 1
 0 <= x47 <= 1
 0 <= x48 <= 1
 0 <= x49 <= 1
 0 <= x50 <= 1
Binaries
 x1  x2  x3  x4  x5  x6  x7  x8  x9  x10  x11  x12  x13  x14  x15  x16  x17 
 x18  x19  x20  x21  x22  x23  x24  x25  x26  x27  x28  x29  x30  x31  x32 
 x33  x34  x35  x36  x37  x38  x39  x40  x41  x42  x43  x44  x45  x46  x47 
 x48  x49  x50 
End
